Problem:    
Rows:       256
Columns:    89 (72 integer, 72 binary)
Non-zeros:  924
Status:     INTEGER OPTIMAL
Objective:  value = 6.253631 (MINimum)

   No.   Row name        Activity     Lower bound   Upper bound
------ ------------    ------------- ------------- -------------
     1 r.5                   1030.25             0               
     2 r.6                  -1023.28      -1023.44               
     3 r.7                   6.25363             0               
     4 r.8                    0.1647      -1013.06               
     5 r.9                   1030.25             0               
     6 r.10                 -1019.51      -1023.36               
     7 r.11                  6.25363             0               
     8 r.12                   0.1647      -1013.21               
     9 r.13                  1030.25             0               
    10 r.14                 -1020.15       -1023.2               
    11 r.15                  6.25363             0               
    12 r.16                  3.05171      -1009.73               
    13 r.17                  1030.25             0               
    14 r.18                 -1020.95       -1023.6               
    15 r.19                  6.25363             0               
    16 r.20                  3.05171      -1013.12               
    17 r.21                  1030.25             0               
    18 r.22                 -1021.38      -1023.36               
    19 r.23                  6.25363             0               
    20 r.24                  2.62093       -1013.2               
    21 r.25                  6.25363             0               
    22 r.26                  6.25363      -1022.53               
    23 r.27                  1030.25             0               
    24 r.28                 -1017.75      -1020.37               
    25 r.29                  1030.25             0               
    26 r.30                 -1017.75      -1022.24               
    27 r.31                  6.25363             0               
    28 r.32                  6.25363      -1019.08               
    29 r.33                  1030.25             0               
    30 r.34                 -1023.84      -1023.84               
    31 r.35                  6.25363             0               
    32 r.36                   0.1647      -1022.66               
    33 r.37                        1             1             = 
    34 r.38                        1             1             = 
    35 r.39                        1             1             = 
    36 r.40                        1             1             = 
    37 r.41                        1             1             = 
    38 r.42                        1             1             = 
    39 r.43                        1             1             = 
    40 r.44                        1             1             = 
    41 r.45                        2             2               
    42 r.46                       -2         -1025               
    43 r.47                 -1021.48      -1023.36               
    44 r.48                     1024             2               
    45 r.49                    -1024         -1025               
    46 r.50                  2049.73      -1013.21               
    47 r.51                        2             2               
    48 r.52                       -2         -1025               
    49 r.53                 -1022.12       -1023.2               
    50 r.54                     1024             2               
    51 r.55                    -1024         -1025               
    52 r.56                  2052.62      -1009.73               
    53 r.57                        2             2               
    54 r.58                       -2         -1025               
    55 r.59                 -1022.92       -1023.6               
    56 r.60                     1024             2               
    57 r.61                    -1024         -1025               
    58 r.62                  2052.62      -1013.12               
    59 r.63                        2             2               
    60 r.64                       -2         -1025               
    61 r.65                 -1023.36      -1023.36               
    62 r.66                     1024             2               
    63 r.67                    -1024         -1025               
    64 r.68                  2052.19       -1013.2               
    65 r.69                  4.27738      -1022.53               
    66 r.70                 -1019.72      -1020.37               
    67 r.71                  7.82342      -1022.53               
    68 r.72                 -1016.18      -1020.37               
    69 r.73                        2             2               
    70 r.74                       -2         -1025               
    71 r.75                 -1019.72      -1022.24               
    72 r.76                     1024             2               
    73 r.77                    -1024         -1025               
    74 r.78                  2055.82      -1019.08               
    75 r.79                        0             0               
    76 r.80                        0             0               
    77 r.81                        0             0               
    78 r.82                        0             0               
    79 r.83                        2             2               
    80 r.84                       -2         -1025               
    81 r.85                  1020.23      0.556906               
    82 r.86                     1024             2               
    83 r.87                    -1024         -1025               
    84 r.88                     2048       10.9362               
    85 r.89                        2             2               
    86 r.90                       -2         -1025               
    87 r.91                -0.641639       -1023.2               
    88 r.92                     1024             2               
    89 r.93                    -1024         -1025               
    90 r.94                  2050.89      -1009.73               
    91 r.95                        2             2               
    92 r.96                       -2         -1025               
    93 r.97                 -1.44246       -1023.6               
    94 r.98                     1024             2               
    95 r.99                    -1024         -1025               
    96 r.100                 2050.89      -1013.12               
    97 r.101                       2             2               
    98 r.102                      -2         -1025               
    99 r.103                -1.87324      -1023.36               
   100 r.104                    1024             2               
   101 r.105                   -1024         -1025               
   102 r.106                 2050.46       -1013.2               
   103 r.107                    1025             2               
   104 r.108                   -1025         -1025               
   105 r.109                 2049.76      -1022.53               
   106 r.110                    1025             2               
   107 r.111                   -1025         -1025               
   108 r.112                 2054.09      -1020.37               
   109 r.113                -1022.24      -1022.24               
   110 r.114                 1.75946      -1019.08               
   111 r.115                -1017.91      -1022.24               
   112 r.116                 6.08893      -1019.08               
   113 r.117                 3.68784             0               
   114 r.118                       0             0               
   115 r.119                 3.68784             0               
   116 r.120                       0             0               
   117 r.121                       2             2               
   118 r.122                      -2         -1025               
   119 r.123                 1020.87      0.556906               
   120 r.124                    1024             2               
   121 r.125                   -1024         -1025               
   122 r.126                 2045.11       10.9362               
   123 r.127                       2             2               
   124 r.128                      -2         -1025               
   125 r.129                0.641639      0.641639               
   126 r.130                    1024             2               
   127 r.131                   -1024         -1025               
   128 r.132                 2045.11       10.7856               
   129 r.133                       0             0               
   130 r.134                       0             0               
   131 r.135                       0             0               
   132 r.136                       0             0               
   133 r.137                       2             2               
   134 r.138                      -2         -1025               
   135 r.139                -1.23161      -1023.36               
   136 r.140                    1024             2               
   137 r.141                   -1024         -1025               
   138 r.142                 2047.57       -1013.2               
   139 r.143                    1025             2               
   140 r.144                   -1025         -1025               
   141 r.145                  2050.4      -1022.53               
   142 r.146                    1025             2               
   143 r.147                   -1025         -1025               
   144 r.148                  2051.2      -1020.37               
   145 r.149                 -1021.6      -1022.24               
   146 r.150                 2.40109      -1019.08               
   147 r.151                 -1020.8      -1022.24               
   148 r.152                 3.20192      -1019.08               
   149 r.153                 2.88701             0               
   150 r.154                 2.88701             0               
   151 r.155                 2.88701             0               
   152 r.156                 2.88701             0               
   153 r.157                       2             2               
   154 r.158                      -2         -1025               
   155 r.159                 1021.67      0.556906               
   156 r.160                    1024             2               
   157 r.161                   -1024         -1025               
   158 r.162                 2045.11       10.9362               
   159 r.163                       2             2               
   160 r.164                      -2         -1025               
   161 r.165                 1.44246      0.641639               
   162 r.166                    1024             2               
   163 r.167                   -1024         -1025               
   164 r.168                 2045.11       10.7856               
   165 r.169                       2             2               
   166 r.170                      -2         -1025               
   167 r.171               -0.430783      -1023.36               
   168 r.172                    1024             2               
   169 r.173                   -1024         -1025               
   170 r.174                 2047.57       -1013.2               
   171 r.175                    1025             2               
   172 r.176                   -1025         -1025               
   173 r.177                  2051.2      -1022.53               
   174 r.178                    1025             2               
   175 r.179                   -1025         -1025               
   176 r.180                  2051.2      -1020.37               
   177 r.181                 -1020.8      -1022.24               
   178 r.182                 3.20192      -1019.08               
   179 r.183                 -1020.8      -1022.24               
   180 r.184                 3.20192      -1019.08               
   181 r.185                 2.48585             0               
   182 r.186                 2.88701             0               
   183 r.187                 2.48585             0               
   184 r.188                 2.88701             0               
   185 r.189                       2             2               
   186 r.190                      -2         -1025               
   187 r.191                  1022.1      0.556906               
   188 r.192                    1024             2               
   189 r.193                   -1024         -1025               
   190 r.194                 2045.54       10.9362               
   191 r.195                       2             2               
   192 r.196                      -2         -1025               
   193 r.197                 1.87324      0.641639               
   194 r.198                    1024             2               
   195 r.199                   -1024         -1025               
   196 r.200                 2045.54       10.7856               
   197 r.201                       2             2               
   198 r.202                      -2         -1025               
   199 r.203                 1.23161      0.800822               
   200 r.204                    1024             2               
   201 r.205                   -1024         -1025               
   202 r.206                 2048.43        14.275               
   203 r.207                       2             2               
   204 r.208                      -2         -1025               
   205 r.209                0.430783      0.401161               
   206 r.210                    1024             2               
   207 r.211                   -1024         -1025               
   208 r.212                 2048.43        10.881               
   209 r.213                  3.6327      -1022.53               
   210 r.214                -1020.37      -1020.37               
   211 r.215                  3.6327      -1022.53               
   212 r.216                -1020.37      -1020.37               
   213 r.217                -1020.37      -1022.24               
   214 r.218                  3.6327      -1019.08               
   215 r.219                -1020.37      -1022.24               
   216 r.220                  3.6327      -1019.08               
   217 r.221                 1.81155             0               
   218 r.222                 2.45623             0               
   219 r.223                 1.81155             0               
   220 r.224                 2.45623             0               
   221 r.225                    1025             2               
   222 r.226                   -1025         -1025               
   223 r.227                 2046.24      0.641639               
   224 r.228                    1025             2               
   225 r.229                   -1025         -1025               
   226 r.230                 2041.91       10.7856               
   227 r.231                    1025             2               
   228 r.232                   -1025         -1025               
   229 r.233                  2045.6      0.800822               
   230 r.234                    1025             2               
   231 r.235                   -1025         -1025               
   232 r.236                  2044.8        14.275               
   233 r.237                    1025             2               
   234 r.238                   -1025         -1025               
   235 r.239                  2044.8      0.401161               
   236 r.240                    1025             2               
   237 r.241                   -1025         -1025               
   238 r.242                  2044.8        10.881               
   239 r.243                    1025             2               
   240 r.244                   -1025         -1025               
   241 r.245                    2048      -1022.24               
   242 r.246                    1025             2               
   243 r.247                   -1025         -1025               
   244 r.248                    2048      -1019.08               
   245 r.249                       2             2               
   246 r.250                      -2         -1025               
   247 r.251                 1018.47      0.556906               
   248 r.252                    1024             2               
   249 r.253                   -1024         -1025               
   250 r.254                 2041.91       10.9362               
   251 r.255                    1025             2               
   252 r.256                   -1025         -1025               
   253 r.257                    2048        1.4711               
   254 r.258                    1025             2               
   255 r.259                   -1025         -1025               
   256 r.260                    2048        3.6327               

   No. Column name       Activity     Lower bound   Upper bound
------ ------------    ------------- ------------- -------------
     1 tt                    6.25363             0               
     2 s_1_1        *              1             0             1 
     3 t_1_1                 4.27738             0               
     4 s_1_6        *              0             0             1 
     5 s_2_1        *              0             0             1 
     6 t_2_1                 7.82342             0               
     7 s_2_6        *              1             0             1 
     8 s_1_2        *              1             0             1 
     9 t_1_2                 1.75946             0               
    10 s_1_7        *              1             0             1 
    11 s_2_2        *              0             0             1 
    12 t_2_2                 6.08893             0               
    13 s_2_7        *              0             0             1 
    14 s_1_3        *              1             0             1 
    15 t_1_3                 2.40109             0               
    16 s_2_3        *              0             0             1 
    17 t_2_3                 3.20192             0               
    18 s_1_4        *              1             0             1 
    19 t_1_4                 3.20192             0               
    20 s_2_4        *              0             0             1 
    21 t_2_4                 3.20192             0               
    22 s_1_5        *              1             0             1 
    23 t_1_5                  3.6327             0               
    24 s_2_5        *              0             0             1 
    25 t_2_5                  3.6327             0               
    26 t_1_6                       0             0               
    27 t_2_6                       0             0               
    28 t_1_7                       0             0               
    29 t_2_7                       0             0               
    30 s_1_8        *              1             0             1 
    31 t_1_8                 6.08893             0               
    32 s_2_8        *              0             0             1 
    33 t_2_8                 6.08893             0               
    34 r_1_1_2      *              0             0             1 
    35 u_1_1_2      *              1             0             1 
    36 r_2_1_2      *              1             0             1 
    37 u_2_1_2      *              0             0             1 
    38 r_1_1_3      *              0             0             1 
    39 u_1_1_3      *              1             0             1 
    40 r_2_1_3      *              1             0             1 
    41 u_2_1_3      *              0             0             1 
    42 r_1_1_4      *              0             0             1 
    43 u_1_1_4      *              1             0             1 
    44 r_2_1_4      *              1             0             1 
    45 u_2_1_4      *              0             0             1 
    46 r_1_1_5      *              0             0             1 
    47 u_1_1_5      *              1             0             1 
    48 r_2_1_5      *              1             0             1 
    49 u_2_1_5      *              0             0             1 
    50 r_1_1_7      *              0             0             1 
    51 u_1_1_7      *              1             0             1 
    52 r_2_1_7      *              1             0             1 
    53 u_2_1_7      *              0             0             1 
    54 r_1_2_3      *              0             0             1 
    55 u_1_2_3      *              0             0             1 
    56 r_2_2_3      *              1             0             1 
    57 u_2_2_3      *              0             0             1 
    58 r_1_2_4      *              0             0             1 
    59 u_1_2_4      *              0             0             1 
    60 r_2_2_4      *              1             0             1 
    61 u_2_2_4      *              0             0             1 
    62 r_1_2_5      *              0             0             1 
    63 u_1_2_5      *              0             0             1 
    64 r_2_2_5      *              1             0             1 
    65 u_2_2_5      *              0             0             1 
    66 r_1_2_6      *              1             0             1 
    67 u_1_2_6      *              0             0             1 
    68 r_2_2_6      *              1             0             1 
    69 u_2_2_6      *              0             0             1 
    70 r_1_3_5      *              0             0             1 
    71 u_1_3_5      *              0             0             1 
    72 r_2_3_5      *              1             0             1 
    73 u_2_3_5      *              0             0             1 
    74 r_1_3_6      *              1             0             1 
    75 u_1_3_6      *              0             0             1 
    76 r_2_3_6      *              1             0             1 
    77 u_2_3_6      *              0             0             1 
    78 r_1_4_5      *              0             0             1 
    79 u_1_4_5      *              0             0             1 
    80 r_2_4_5      *              1             0             1 
    81 u_2_4_5      *              0             0             1 
    82 r_1_4_6      *              1             0             1 
    83 u_1_4_6      *              0             0             1 
    84 r_2_4_6      *              1             0             1 
    85 u_2_4_6      *              0             0             1 
    86 r_1_6_7      *              1             0             1 
    87 u_1_6_7      *              0             0             1 
    88 r_2_6_7      *              1             0             1 
    89 u_2_6_7      *              0             0             1 

Integer feasibility conditions:

KKT.PE: max.abs.err = 4.55e-13 on row 90
        max.rel.err = 1.11e-16 on row 202
        High quality

KKT.PB: max.abs.err = 1.11e-16 on row 125
        max.rel.err = 6.76e-17 on row 125
        High quality

End of output
